1
100
60
66 23
87 7
12 72
91 1
83 25
80 49
94 18
88 50
11 92
80 3
88 37
92 9
71 14
89 19
90 18
70 31
16 100
8 46
100 11
37 14
91 49
96 35
76 64
28 71
19 72
94 35
75 31
81 64
74 31
100 48
75 9
98 33
78 15
80 22
25 99
81 13
35 10
67 7
98 49
73 4
75 17
98 4
32 73
73 7
68 35
67 13
85 36
81 22
69 15
70 84
36 81
96 99
79 7
100 16
69 20
87 37
45 11
93 10
37 86
84 37
